(set-info :smt-lib-version 2.6)
(set-info :category "crafted")
(set-logic QF_FF)
(define-sort FF0 () (_ FiniteField 52435875175126190479447740508185965837690552500527637822603658699938581184513))
(declare-fun return_n0_alt () FF0)
(declare-fun mul_n36_alt () FF0)
(declare-fun mul_n52_alt () FF0)
(declare-fun mul_n25_alt () FF0)
(declare-fun mul_n51_alt () FF0)
(declare-fun mul_n37_alt () FF0)
(declare-fun mul_n50_alt () FF0)
(declare-fun mul_n47_alt () FF0)
(declare-fun mul_n49_alt () FF0)
(declare-fun mul_n48_alt () FF0)
(declare-fun mul_n31_alt () FF0)
(declare-fun mul_n30_alt () FF0)
(declare-fun mul_n29_alt () FF0)
(declare-fun a_n2_alt () FF0)
(declare-fun mul_n46_alt () FF0)
(declare-fun mul_n45_alt () FF0)
(declare-fun mul_n42_alt () FF0)
(declare-fun mul_n44_alt () FF0)
(declare-fun b_n1_alt () FF0)
(declare-fun mul_n43_alt () FF0)
(declare-fun mul_n3_alt () FF0)
(declare-fun mul_n22_alt () FF0)
(declare-fun mul_n4_alt () FF0)
(declare-fun mul_n23_alt () FF0)
(declare-fun mul_n16_alt () FF0)
(declare-fun mul_n24_alt () FF0)
(declare-fun mul_n5_alt () FF0)
(declare-fun mul_n41_alt () FF0)
(declare-fun mul_n40_alt () FF0)
(declare-fun mul_n39_alt () FF0)
(declare-fun mul_n38_alt () FF0)
(declare-fun mul_n35_alt () FF0)
(declare-fun mul_n34_alt () FF0)
(declare-fun mul_n33_alt () FF0)
(declare-fun mul_n26_alt () FF0)
(declare-fun mul_n32_alt () FF0)
(declare-fun mul_n10_alt () FF0)
(declare-fun mul_n28_alt () FF0)
(declare-fun mul_n27_alt () FF0)
(declare-fun mul_n15_alt () FF0)
(declare-fun mul_n21_alt () FF0)
(declare-fun mul_n20_alt () FF0)
(declare-fun mul_n19_alt () FF0)
(declare-fun mul_n18_alt () FF0)
(declare-fun mul_n17_alt () FF0)
(declare-fun mul_n14_alt () FF0)
(declare-fun mul_n13_alt () FF0)
(declare-fun mul_n12_alt () FF0)
(declare-fun mul_n11_alt () FF0)
(declare-fun mul_n9_alt () FF0)
(declare-fun mul_n8_alt () FF0)
(declare-fun mul_n7_alt () FF0)
(declare-fun mul_n6_alt () FF0)
(declare-fun return_n0 () FF0)
(declare-fun mul_n36 () FF0)
(declare-fun mul_n52 () FF0)
(declare-fun mul_n25 () FF0)
(declare-fun mul_n51 () FF0)
(declare-fun mul_n37 () FF0)
(declare-fun mul_n50 () FF0)
(declare-fun mul_n47 () FF0)
(declare-fun mul_n49 () FF0)
(declare-fun mul_n48 () FF0)
(declare-fun mul_n31 () FF0)
(declare-fun mul_n30 () FF0)
(declare-fun mul_n29 () FF0)
(declare-fun a_n2 () FF0)
(declare-fun mul_n46 () FF0)
(declare-fun mul_n45 () FF0)
(declare-fun mul_n42 () FF0)
(declare-fun mul_n44 () FF0)
(declare-fun b_n1 () FF0)
(declare-fun mul_n43 () FF0)
(declare-fun mul_n3 () FF0)
(declare-fun mul_n22 () FF0)
(declare-fun mul_n4 () FF0)
(declare-fun mul_n23 () FF0)
(declare-fun mul_n16 () FF0)
(declare-fun mul_n24 () FF0)
(declare-fun mul_n5 () FF0)
(declare-fun mul_n41 () FF0)
(declare-fun mul_n40 () FF0)
(declare-fun mul_n39 () FF0)
(declare-fun mul_n38 () FF0)
(declare-fun mul_n35 () FF0)
(declare-fun mul_n34 () FF0)
(declare-fun mul_n33 () FF0)
(declare-fun mul_n26 () FF0)
(declare-fun mul_n32 () FF0)
(declare-fun mul_n10 () FF0)
(declare-fun mul_n28 () FF0)
(declare-fun mul_n27 () FF0)
(declare-fun mul_n15 () FF0)
(declare-fun mul_n21 () FF0)
(declare-fun mul_n20 () FF0)
(declare-fun mul_n19 () FF0)
(declare-fun mul_n18 () FF0)
(declare-fun mul_n17 () FF0)
(declare-fun mul_n14 () FF0)
(declare-fun mul_n13 () FF0)
(declare-fun mul_n12 () FF0)
(declare-fun mul_n11 () FF0)
(declare-fun mul_n9 () FF0)
(declare-fun mul_n8 () FF0)
(declare-fun mul_n7 () FF0)
(declare-fun mul_n6 () FF0)
(assert 
  (let ((let0 (as ff1 FF0)))
  (let ((let1 (as ff52435875175126190479447740508185965837690552500527637822603658699938581184512 FF0)))
  (let ((let2 return_n0_alt))
  (let ((let3 (ff.mul let2 let1)))
  (let ((let4 (ff.add let3 let0)))
  (let ((let5 mul_n36_alt))
  (let ((let6 (ff.mul let5 let1)))
  (let ((let7 (ff.add let6 let0)))
  (let ((let8 mul_n52_alt))
  (let ((let9 (ff.mul let8 let7)))
  (let ((let10 (= let9 let4)))
  (let ((let11 mul_n25_alt))
  (let ((let12 (ff.mul let11 let1)))
  (let ((let13 (ff.add let12 let0)))
  (let ((let14 mul_n51_alt))
  (let ((let15 (ff.mul let14 let13)))
  (let ((let16 (= let15 let8)))
  (let ((let17 (as ff2 FF0)))
  (let ((let18 mul_n37_alt))
  (let ((let19 (ff.mul let18 let1)))
  (let ((let20 (ff.add let6 let19 let12 let17)))
  (let ((let21 mul_n50_alt))
  (let ((let22 (ff.mul let21 let20)))
  (let ((let23 (= let22 let14)))
  (let ((let24 mul_n47_alt))
  (let ((let25 mul_n49_alt))
  (let ((let26 (ff.mul let25 let24)))
  (let ((let27 (= let26 let21)))
  (let ((let28 mul_n48_alt))
  (let ((let29 mul_n31_alt))
  (let ((let30 mul_n30_alt))
  (let ((let31 (ff.mul let30 let1)))
  (let ((let32 mul_n29_alt))
  (let ((let33 (ff.add let32 let31 let29)))
  (let ((let34 (ff.mul let33 let28)))
  (let ((let35 (= let34 let25)))
  (let ((let36 (ff.mul let32 let1)))
  (let ((let37 (ff.add let36 let0)))
  (let ((let38 a_n2_alt))
  (let ((let39 (ff.mul let38 let37)))
  (let ((let40 (= let39 let28)))
  (let ((let41 mul_n46_alt))
  (let ((let42 (ff.mul let41 let5)))
  (let ((let43 (= let42 let24)))
  (let ((let44 mul_n45_alt))
  (let ((let45 (ff.mul let44 let1)))
  (let ((let46 (ff.add let45 let0)))
  (let ((let47 (ff.mul let46 let5)))
  (let ((let48 (= let47 let41)))
  (let ((let49 mul_n42_alt))
  (let ((let50 mul_n44_alt))
  (let ((let51 (ff.mul let50 let49)))
  (let ((let52 (= let51 let44)))
  (let ((let53 b_n1_alt))
  (let ((let54 mul_n43_alt))
  (let ((let55 (ff.mul let54 let53)))
  (let ((let56 (= let55 let50)))
  (let ((let57 mul_n3_alt))
  (let ((let58 (ff.mul let57 let1)))
  (let ((let59 mul_n22_alt))
  (let ((let60 (ff.mul let59 let1)))
  (let ((let61 mul_n4_alt))
  (let ((let62 (ff.mul let61 let1)))
  (let ((let63 mul_n23_alt))
  (let ((let64 (ff.mul let63 let1)))
  (let ((let65 (ff.mul let38 let1)))
  (let ((let66 mul_n16_alt))
  (let ((let67 mul_n24_alt))
  (let ((let68 (ff.add let67 let66 let65 let64 let62 let60 let58 let0)))
  (let ((let69 (ff.mul let68 let32)))
  (let ((let70 (= let69 let54)))
  (let ((let71 mul_n5_alt))
  (let ((let72 mul_n41_alt))
  (let ((let73 (ff.mul let72 let71)))
  (let ((let74 (= let73 let49)))
  (let ((let75 (ff.add let61 let38 let57)))
  (let ((let76 mul_n40_alt))
  (let ((let77 (ff.mul let76 let75)))
  (let ((let78 (= let77 let72)))
  (let ((let79 (ff.add let62 let65 let58 let0)))
  (let ((let80 mul_n39_alt))
  (let ((let81 (ff.mul let80 let79)))
  (let ((let82 (= let81 let76)))
  (let ((let83 (ff.add let60 let0)))
  (let ((let84 mul_n38_alt))
  (let ((let85 (ff.mul let84 let83)))
  (let ((let86 (= let85 let80)))
  (let ((let87 (ff.add let38 let57)))
  (let ((let88 (ff.mul let66 let87)))
  (let ((let89 (= let88 let84)))
  (let ((let90 (as ff52435875175126190479447740508185965837690552500527637822603658699938581184511 FF0)))
  (let ((let91 (ff.mul let11 let90)))
  (let ((let92 (ff.add let91 let17)))
  (let ((let93 (ff.mul let92 let7)))
  (let ((let94 (= let93 let18)))
  (let ((let95 (ff.mul let66 let1)))
  (let ((let96 (ff.mul let67 let1)))
  (let ((let97 (ff.add let96 let95 let38 let63 let61 let59 let57)))
  (let ((let98 mul_n35_alt))
  (let ((let99 (ff.mul let98 let97)))
  (let ((let100 (= let99 let5)))
  (let ((let101 mul_n34_alt))
  (let ((let102 (ff.mul let101 let11)))
  (let ((let103 (= let102 let98)))
  (let ((let104 mul_n33_alt))
  (let ((let105 (ff.mul let104 let79)))
  (let ((let106 (= let105 let101)))
  (let ((let107 mul_n26_alt))
  (let ((let108 mul_n32_alt))
  (let ((let109 (ff.mul let108 let107)))
  (let ((let110 (= let109 let104)))
  (let ((let111 (ff.mul let29 let1)))
  (let ((let112 (ff.add let36 let30 let111 let0)))
  (let ((let113 (ff.add let95 let0)))
  (let ((let114 (ff.mul let113 let112)))
  (let ((let115 (= let114 let108)))
  (let ((let116 (ff.mul let107 let1)))
  (let ((let117 (ff.add let116 let0)))
  (let ((let118 (ff.mul let107 let17)))
  (let ((let119 (ff.mul let30 let17)))
  (let ((let120 (ff.mul let32 let90)))
  (let ((let121 (ff.add let120 let119 let118)))
  (let ((let122 (ff.mul let121 let117)))
  (let ((let123 (= let122 let29)))
  (let ((let124 (ff.mul let32 let17)))
  (let ((let125 (ff.mul let124 let117)))
  (let ((let126 (= let125 let30)))
  (let ((let127 mul_n10_alt))
  (let ((let128 mul_n28_alt))
  (let ((let129 (ff.mul let128 let127)))
  (let ((let130 (= let129 let32)))
  (let ((let131 (ff.add let38 let63 let61 let59 let57 let1)))
  (let ((let132 mul_n27_alt))
  (let ((let133 (ff.mul let132 let131)))
  (let ((let134 (= let133 let128)))
  (let ((let135 (ff.mul let53 let83)))
  (let ((let136 (= let135 let132)))
  (let ((let137 (ff.mul let131 let11)))
  (let ((let138 (= let137 let107)))
  (let ((let139 mul_n15_alt))
  (let ((let140 (ff.mul let139 let1)))
  (let ((let141 (ff.add let140 let0)))
  (let ((let142 (ff.mul let38 let141)))
  (let ((let143 (= let142 let11)))
  (let ((let144 (ff.mul let57 let17)))
  (let ((let145 (ff.mul let59 let17)))
  (let ((let146 (ff.mul let61 let17)))
  (let ((let147 (ff.mul let63 let17)))
  (let ((let148 (ff.mul let38 let17)))
  (let ((let149 (ff.add let148 let147 let146 let145 let144 let90)))
  (let ((let150 (ff.mul let149 let113)))
  (let ((let151 (= let150 let67)))
  (let ((let152 (ff.mul let59 let90)))
  (let ((let153 (ff.add let152 let17)))
  (let ((let154 (ff.mul let153 let79)))
  (let ((let155 (= let154 let63)))
  (let ((let156 (ff.mul let71 let1)))
  (let ((let157 (ff.add let156 let0)))
  (let ((let158 mul_n21_alt))
  (let ((let159 (ff.mul let158 let157)))
  (let ((let160 (= let159 let59)))
  (let ((let161 mul_n20_alt))
  (let ((let162 (ff.mul let161 let141)))
  (let ((let163 (= let162 let158)))
  (let ((let164 mul_n19_alt))
  (let ((let165 (ff.mul let164 let113)))
  (let ((let166 (= let165 let161)))
  (let ((let167 mul_n18_alt))
  (let ((let168 (ff.mul let167 let113)))
  (let ((let169 (= let168 let164)))
  (let ((let170 mul_n17_alt))
  (let ((let171 (ff.mul let170 let170)))
  (let ((let172 (= let171 let167)))
  (let ((let173 (ff.mul let71 let141)))
  (let ((let174 (= let173 let170)))
  (let ((let175 (ff.mul let79 let139)))
  (let ((let176 (= let175 let66)))
  (let ((let177 mul_n14_alt))
  (let ((let178 (ff.mul let177 let157)))
  (let ((let179 (= let178 let139)))
  (let ((let180 mul_n13_alt))
  (let ((let181 (ff.mul let180 let79)))
  (let ((let182 (= let181 let177)))
  (let ((let183 mul_n12_alt))
  (let ((let184 (ff.mul let183 let79)))
  (let ((let185 (= let184 let180)))
  (let ((let186 mul_n11_alt))
  (let ((let187 (ff.mul let186 let71)))
  (let ((let188 (= let187 let183)))
  (let ((let189 (ff.mul let127 let127)))
  (let ((let190 (= let189 let186)))
  (let ((let191 mul_n9_alt))
  (let ((let192 (ff.mul let191 let75)))
  (let ((let193 (= let192 let127)))
  (let ((let194 mul_n8_alt))
  (let ((let195 (ff.mul let194 let53)))
  (let ((let196 (= let195 let191)))
  (let ((let197 mul_n7_alt))
  (let ((let198 (ff.mul let197 let79)))
  (let ((let199 (= let198 let194)))
  (let ((let200 mul_n6_alt))
  (let ((let201 (ff.mul let200 let79)))
  (let ((let202 (= let201 let197)))
  (let ((let203 (ff.mul let38 let157)))
  (let ((let204 (= let203 let200)))
  (let ((let205 (ff.add let65 let58 let0)))
  (let ((let206 (ff.mul let205 let75)))
  (let ((let207 (= let206 let71)))
  (let ((let208 (ff.add let53 let65 let58)))
  (let ((let209 (ff.mul let87 let208)))
  (let ((let210 (= let209 let61)))
  (let ((let211 (ff.add let53 let65)))
  (let ((let212 (ff.mul let38 let211)))
  (let ((let213 (= let212 let57)))
  (let ((let214 (and let213 let210 let207 let204 let202 let199 let196 let193 let190 let188 let185 let182 let179 let176 let174 let172 let169 let166 let163 let160 let155 let151 let143 let138 let136 let134 let130 let126 let123 let115 let110 let106 let103 let100 let94 let89 let86 let82 let78 let74 let70 let56 let52 let48 let43 let40 let35 let27 let23 let16 let10)))
  (let ((let215 return_n0))
  (let ((let216 (ff.mul let215 let1)))
  (let ((let217 (ff.add let216 let0)))
  (let ((let218 mul_n36))
  (let ((let219 (ff.mul let218 let1)))
  (let ((let220 (ff.add let219 let0)))
  (let ((let221 mul_n52))
  (let ((let222 (ff.mul let221 let220)))
  (let ((let223 (= let222 let217)))
  (let ((let224 mul_n25))
  (let ((let225 (ff.mul let224 let1)))
  (let ((let226 (ff.add let225 let0)))
  (let ((let227 mul_n51))
  (let ((let228 (ff.mul let227 let226)))
  (let ((let229 (= let228 let221)))
  (let ((let230 mul_n37))
  (let ((let231 (ff.mul let230 let1)))
  (let ((let232 (ff.add let219 let231 let225 let17)))
  (let ((let233 mul_n50))
  (let ((let234 (ff.mul let233 let232)))
  (let ((let235 (= let234 let227)))
  (let ((let236 mul_n47))
  (let ((let237 mul_n49))
  (let ((let238 (ff.mul let237 let236)))
  (let ((let239 (= let238 let233)))
  (let ((let240 mul_n48))
  (let ((let241 mul_n31))
  (let ((let242 mul_n30))
  (let ((let243 (ff.mul let242 let1)))
  (let ((let244 mul_n29))
  (let ((let245 (ff.add let244 let243 let241)))
  (let ((let246 (ff.mul let245 let240)))
  (let ((let247 (= let246 let237)))
  (let ((let248 (ff.mul let244 let1)))
  (let ((let249 (ff.add let248 let0)))
  (let ((let250 a_n2))
  (let ((let251 (ff.mul let250 let249)))
  (let ((let252 (= let251 let240)))
  (let ((let253 mul_n46))
  (let ((let254 (ff.mul let253 let218)))
  (let ((let255 (= let254 let236)))
  (let ((let256 mul_n45))
  (let ((let257 (ff.mul let256 let1)))
  (let ((let258 (ff.add let257 let0)))
  (let ((let259 (ff.mul let258 let218)))
  (let ((let260 (= let259 let253)))
  (let ((let261 mul_n42))
  (let ((let262 mul_n44))
  (let ((let263 (ff.mul let262 let261)))
  (let ((let264 (= let263 let256)))
  (let ((let265 b_n1))
  (let ((let266 mul_n43))
  (let ((let267 (ff.mul let266 let265)))
  (let ((let268 (= let267 let262)))
  (let ((let269 mul_n3))
  (let ((let270 (ff.mul let269 let1)))
  (let ((let271 mul_n22))
  (let ((let272 (ff.mul let271 let1)))
  (let ((let273 mul_n4))
  (let ((let274 (ff.mul let273 let1)))
  (let ((let275 mul_n23))
  (let ((let276 (ff.mul let275 let1)))
  (let ((let277 (ff.mul let250 let1)))
  (let ((let278 mul_n16))
  (let ((let279 mul_n24))
  (let ((let280 (ff.add let279 let278 let277 let276 let274 let272 let270 let0)))
  (let ((let281 (ff.mul let280 let244)))
  (let ((let282 (= let281 let266)))
  (let ((let283 mul_n5))
  (let ((let284 mul_n41))
  (let ((let285 (ff.mul let284 let283)))
  (let ((let286 (= let285 let261)))
  (let ((let287 (ff.add let273 let250 let269)))
  (let ((let288 mul_n40))
  (let ((let289 (ff.mul let288 let287)))
  (let ((let290 (= let289 let284)))
  (let ((let291 (ff.add let274 let277 let270 let0)))
  (let ((let292 mul_n39))
  (let ((let293 (ff.mul let292 let291)))
  (let ((let294 (= let293 let288)))
  (let ((let295 (ff.add let272 let0)))
  (let ((let296 mul_n38))
  (let ((let297 (ff.mul let296 let295)))
  (let ((let298 (= let297 let292)))
  (let ((let299 (ff.add let250 let269)))
  (let ((let300 (ff.mul let278 let299)))
  (let ((let301 (= let300 let296)))
  (let ((let302 (ff.mul let224 let90)))
  (let ((let303 (ff.add let302 let17)))
  (let ((let304 (ff.mul let303 let220)))
  (let ((let305 (= let304 let230)))
  (let ((let306 (ff.mul let278 let1)))
  (let ((let307 (ff.mul let279 let1)))
  (let ((let308 (ff.add let307 let306 let250 let275 let273 let271 let269)))
  (let ((let309 mul_n35))
  (let ((let310 (ff.mul let309 let308)))
  (let ((let311 (= let310 let218)))
  (let ((let312 mul_n34))
  (let ((let313 (ff.mul let312 let224)))
  (let ((let314 (= let313 let309)))
  (let ((let315 mul_n33))
  (let ((let316 (ff.mul let315 let291)))
  (let ((let317 (= let316 let312)))
  (let ((let318 mul_n26))
  (let ((let319 mul_n32))
  (let ((let320 (ff.mul let319 let318)))
  (let ((let321 (= let320 let315)))
  (let ((let322 (ff.mul let241 let1)))
  (let ((let323 (ff.add let248 let242 let322 let0)))
  (let ((let324 (ff.add let306 let0)))
  (let ((let325 (ff.mul let324 let323)))
  (let ((let326 (= let325 let319)))
  (let ((let327 (ff.mul let318 let1)))
  (let ((let328 (ff.add let327 let0)))
  (let ((let329 (ff.mul let318 let17)))
  (let ((let330 (ff.mul let242 let17)))
  (let ((let331 (ff.mul let244 let90)))
  (let ((let332 (ff.add let331 let330 let329)))
  (let ((let333 (ff.mul let332 let328)))
  (let ((let334 (= let333 let241)))
  (let ((let335 (ff.mul let244 let17)))
  (let ((let336 (ff.mul let335 let328)))
  (let ((let337 (= let336 let242)))
  (let ((let338 mul_n10))
  (let ((let339 mul_n28))
  (let ((let340 (ff.mul let339 let338)))
  (let ((let341 (= let340 let244)))
  (let ((let342 (ff.add let250 let275 let273 let271 let269 let1)))
  (let ((let343 mul_n27))
  (let ((let344 (ff.mul let343 let342)))
  (let ((let345 (= let344 let339)))
  (let ((let346 (ff.mul let265 let295)))
  (let ((let347 (= let346 let343)))
  (let ((let348 (ff.mul let342 let224)))
  (let ((let349 (= let348 let318)))
  (let ((let350 mul_n15))
  (let ((let351 (ff.mul let350 let1)))
  (let ((let352 (ff.add let351 let0)))
  (let ((let353 (ff.mul let250 let352)))
  (let ((let354 (= let353 let224)))
  (let ((let355 (ff.mul let269 let17)))
  (let ((let356 (ff.mul let271 let17)))
  (let ((let357 (ff.mul let273 let17)))
  (let ((let358 (ff.mul let275 let17)))
  (let ((let359 (ff.mul let250 let17)))
  (let ((let360 (ff.add let359 let358 let357 let356 let355 let90)))
  (let ((let361 (ff.mul let360 let324)))
  (let ((let362 (= let361 let279)))
  (let ((let363 (ff.mul let271 let90)))
  (let ((let364 (ff.add let363 let17)))
  (let ((let365 (ff.mul let364 let291)))
  (let ((let366 (= let365 let275)))
  (let ((let367 (ff.mul let283 let1)))
  (let ((let368 (ff.add let367 let0)))
  (let ((let369 mul_n21))
  (let ((let370 (ff.mul let369 let368)))
  (let ((let371 (= let370 let271)))
  (let ((let372 mul_n20))
  (let ((let373 (ff.mul let372 let352)))
  (let ((let374 (= let373 let369)))
  (let ((let375 mul_n19))
  (let ((let376 (ff.mul let375 let324)))
  (let ((let377 (= let376 let372)))
  (let ((let378 mul_n18))
  (let ((let379 (ff.mul let378 let324)))
  (let ((let380 (= let379 let375)))
  (let ((let381 mul_n17))
  (let ((let382 (ff.mul let381 let381)))
  (let ((let383 (= let382 let378)))
  (let ((let384 (ff.mul let283 let352)))
  (let ((let385 (= let384 let381)))
  (let ((let386 (ff.mul let291 let350)))
  (let ((let387 (= let386 let278)))
  (let ((let388 mul_n14))
  (let ((let389 (ff.mul let388 let368)))
  (let ((let390 (= let389 let350)))
  (let ((let391 mul_n13))
  (let ((let392 (ff.mul let391 let291)))
  (let ((let393 (= let392 let388)))
  (let ((let394 mul_n12))
  (let ((let395 (ff.mul let394 let291)))
  (let ((let396 (= let395 let391)))
  (let ((let397 mul_n11))
  (let ((let398 (ff.mul let397 let283)))
  (let ((let399 (= let398 let394)))
  (let ((let400 (ff.mul let338 let338)))
  (let ((let401 (= let400 let397)))
  (let ((let402 mul_n9))
  (let ((let403 (ff.mul let402 let287)))
  (let ((let404 (= let403 let338)))
  (let ((let405 mul_n8))
  (let ((let406 (ff.mul let405 let265)))
  (let ((let407 (= let406 let402)))
  (let ((let408 mul_n7))
  (let ((let409 (ff.mul let408 let291)))
  (let ((let410 (= let409 let405)))
  (let ((let411 mul_n6))
  (let ((let412 (ff.mul let411 let291)))
  (let ((let413 (= let412 let408)))
  (let ((let414 (ff.mul let250 let368)))
  (let ((let415 (= let414 let411)))
  (let ((let416 (ff.add let277 let270 let0)))
  (let ((let417 (ff.mul let416 let287)))
  (let ((let418 (= let417 let283)))
  (let ((let419 (ff.add let265 let277 let270)))
  (let ((let420 (ff.mul let299 let419)))
  (let ((let421 (= let420 let273)))
  (let ((let422 (ff.add let265 let277)))
  (let ((let423 (ff.mul let250 let422)))
  (let ((let424 (= let423 let269)))
  (let ((let425 (and let424 let421 let418 let415 let413 let410 let407 let404 let401 let399 let396 let393 let390 let387 let385 let383 let380 let377 let374 let371 let366 let362 let354 let349 let347 let345 let341 let337 let334 let326 let321 let317 let314 let311 let305 let301 let298 let294 let290 let286 let282 let268 let264 let260 let255 let252 let247 let239 let235 let229 let223)))
  (let ((let426 (= let215 let2)))
  (let ((let427 (not let426)))
  (let ((let428 (= let265 let53)))
  (let ((let429 (= let250 let38)))
  (let ((let430 (and let429 let428)))
  (let ((let431 (and let430 let427 let425 let214)))
  let431
))))))))))))))))))))))))))))))))))))))))))))))))))))))))))))))))))))))))))))))))))))))))))))))))))))))))))))))))))))))))))))))))))))))))))))))))))))))))))))))))))))))))))))))))))))))))))))))))))))))))))))))))))))))))))))))))))))))))))))))))))))))))))))))))))))))))))))))))))))))))))))))))))))))))))))))))))))))))))))))))))))))))))))))))))))))))))))))))))))))))))))))))))))))))))))))))))))))))))))))))))))))))))))))))))))))))))))))))
)
(check-sat)
